TCS_Benchmarks/redos_fix/regexlib1_output_distinct_3764_3763_0_0.txt
(gdb|sde|mdb)+(gdb|sde|mdf)+
(gdb|sde|mdb)+
m.*